Problem:    
Rows:       256
Columns:    89 (72 integer, 72 binary)
Non-zeros:  800
Status:     INTEGER OPTIMAL
Objective:  value = 145.08245 (MINimum)

   No.   Row name        Activity     Lower bound   Upper bound
------ ------------    ------------- ------------- -------------
     1 r.5                   145.082             0               
     2 r.6                   61.7947      -965.159               
     3 r.7                   1145.08             0               
     4 r.8                  -957.726      -979.245               
     5 r.9                   1145.08             0               
     6 r.10                 -938.205      -960.418               
     7 r.11                  145.082             0               
     8 r.12                  92.8705      -976.369               
     9 r.13                  145.082             0               
    10 r.14                  92.8705      -940.634               
    11 r.15                  1145.08             0               
    12 r.16                  -907.13       -966.72               
    13 r.17                  145.082             0               
    14 r.18                  59.5905      -968.661               
    15 r.19                  1145.08             0               
    16 r.20                 -978.481      -980.619               
    17 r.21                  145.082             0               
    18 r.22                  61.7947      -971.544               
    19 r.23                  1145.08             0               
    20 r.24                  -940.41      -982.683               
    21 r.25                  1145.08             0               
    22 r.26                 -997.862      -997.862               
    23 r.27                  145.082             0               
    24 r.28                   2.1384      -997.725               
    25 r.29                  1145.08             0               
    26 r.30                 -854.918      -916.712               
    27 r.31                  145.082             0               
    28 r.32                  145.082      -947.767               
    29 r.33                  145.082             0               
    30 r.34                  145.082      -915.986               
    31 r.35                  1145.08             0               
    32 r.36                 -854.918      -947.788               
    33 r.37                        1             1             = 
    34 r.38                        1             1             = 
    35 r.39                        1             1             = 
    36 r.40                        1             1             = 
    37 r.41                        1             1             = 
    38 r.42                        1             1             = 
    39 r.43                        1             1             = 
    40 r.44                        1             1             = 
    41 r.45                     1001             2               
    42 r.46                    -1001         -1001               
    43 r.47                     2000      -960.418               
    44 r.48                     1001             2               
    45 r.49                    -1001         -1001               
    46 r.50                   2050.6      -976.369               
    47 r.51                     1000             2               
    48 r.52                    -1000         -1001               
    49 r.53                  2031.08      -940.634               
    50 r.54                        2             2               
    51 r.55                       -2         -1001               
    52 r.56                 -949.403       -966.72               
    53 r.57                     1000             2               
    54 r.58                    -1000         -1001               
    55 r.59                   1997.8      -968.661               
    56 r.60                        2             2               
    57 r.61                       -2         -1001               
    58 r.62                 -20.7548      -980.619               
    59 r.63                     1000             2               
    60 r.64                    -1000         -1001               
    61 r.65                     2000      -971.544               
    62 r.66                        2             2               
    63 r.67                       -2         -1001               
    64 r.68                 -982.683      -982.683               
    65 r.69                  59.6562      -965.159               
    66 r.70                 -959.865      -979.245               
    67 r.71                  59.6562      -965.159               
    68 r.72                 -959.865      -979.245               
    69 r.73                 -916.712      -916.712               
    70 r.74                  83.2878      -947.767               
    71 r.75                 -897.191      -916.712               
    72 r.76                  102.809      -947.767               
    73 r.77                     1000             2               
    74 r.78                    -1000         -1001               
    75 r.79                  2083.29      -915.986               
    76 r.80                        2             2               
    77 r.81                       -2         -1001               
    78 r.82                 -897.191      -947.788               
    79 r.83                     1001             2               
    80 r.84                    -1001         -1001               
    81 r.85                     2000       34.8406               
    82 r.86                     1001             2               
    83 r.87                    -1001         -1001               
    84 r.88                   1949.4       20.7548               
    85 r.89                     1001             2               
    86 r.90                    -1001         -1001               
    87 r.91                  2031.08      -940.634               
    88 r.92                     1001             2               
    89 r.93                    -1001         -1001               
    90 r.94                     2000       -966.72               
    91 r.95                     1001             2               
    92 r.96                    -1001         -1001               
    93 r.97                   1997.8      -968.661               
    94 r.98                     1001             2               
    95 r.99                    -1001         -1001               
    96 r.100                 1928.65      -980.619               
    97 r.101                    1001             2               
    98 r.102                   -1001         -1001               
    99 r.103                    2000      -971.544               
   100 r.104                    1001             2               
   101 r.105                   -1001         -1001               
   102 r.106                 1966.72      -982.683               
   103 r.107                -940.344      -960.418               
   104 r.108                  90.732      -976.369               
   105 r.109                -940.344      -960.418               
   106 r.110                  90.732      -976.369               
   107 r.111                       2             2               
   108 r.112                      -2         -1001               
   109 r.113                -916.712      -916.712               
   110 r.114                    1000             2               
   111 r.115                   -1000         -1001               
   112 r.116                 2052.21      -947.767               
   113 r.117                 83.2878      -915.986               
   114 r.118                -916.712      -947.788               
   115 r.119                  52.212      -915.986               
   116 r.120                -947.788      -947.788               
   117 r.121                    1000             2               
   118 r.122                   -1000         -1001               
   119 r.123                 1968.92       34.8406               
   120 r.124                       2             2               
   121 r.125                      -2         -1001               
   122 r.126                 949.403       20.7548               
   123 r.127                    1001             2               
   124 r.128                   -1001         -1001               
   125 r.129                 1968.92       39.5822               
   126 r.130                    1001             2               
   127 r.131                   -1001         -1001               
   128 r.132                    2000       23.6306               
   129 r.133                   33.28      -940.634               
   130 r.134                 -966.72       -966.72               
   131 r.135                 71.3514      -940.634               
   132 r.136                -928.649       -966.72               
   133 r.137                    1000             2               
   134 r.138                   -1000         -1001               
   135 r.139                 1968.92      -971.544               
   136 r.140                       2             2               
   137 r.141                      -2         -1001               
   138 r.142                  -33.28      -982.683               
   139 r.143                  90.732      -940.634               
   140 r.144                -909.268       -966.72               
   141 r.145                  90.732      -940.634               
   142 r.146                -909.268       -966.72               
   143 r.147                    1001             2               
   144 r.148                   -1001         -1001               
   145 r.149                 2052.21      -916.712               
   146 r.150                    1001             2               
   147 r.151                   -1001         -1001               
   148 r.152                 2052.21      -947.767               
   149 r.153                  52.212      -915.986               
   150 r.154                -947.788      -947.788               
   151 r.155                  52.212      -915.986               
   152 r.156                -947.788      -947.788               
   153 r.157                    1000             2               
   154 r.158                   -1000         -1001               
   155 r.159                  2002.2       34.8406               
   156 r.160                       2             2               
   157 r.161                      -2         -1001               
   158 r.162                 20.7548       20.7548               
   159 r.163                    1001             2               
   160 r.164                   -1001         -1001               
   161 r.165                  2002.2       39.5822               
   162 r.166                    1001             2               
   163 r.167                   -1001         -1001               
   164 r.168                 2071.35       23.6306               
   165 r.169                    1000             2               
   166 r.170                   -1000         -1001               
   167 r.171                  2002.2      -971.544               
   168 r.172                       2             2               
   169 r.173                      -2         -1001               
   170 r.174                -961.929      -982.683               
   171 r.175                 57.4521      -968.661               
   172 r.176                -980.619      -980.619               
   173 r.177                 57.4521      -968.661               
   174 r.178                -980.619      -980.619               
   175 r.179                    1001             2               
   176 r.180                   -1001         -1001               
   177 r.181                 2085.49      -916.712               
   178 r.182                    1001             2               
   179 r.183                   -1001         -1001               
   180 r.184                 2123.56      -947.767               
   181 r.185                  85.492      -915.986               
   182 r.186                -914.508      -947.788               
   183 r.187                 123.563      -915.986               
   184 r.188                -876.437      -947.788               
   185 r.189                    1000             2               
   186 r.190                   -1000         -1001               
   187 r.191                    2000       34.8406               
   188 r.192                       2             2               
   189 r.193                      -2         -1001               
   190 r.194                 982.683       20.7548               
   191 r.195                    1001             2               
   192 r.196                   -1001         -1001               
   193 r.197                    2000       39.5822               
   194 r.198                    1001             2               
   195 r.199                   -1001         -1001               
   196 r.200                 2033.28       23.6306               
   197 r.201                    1000             2               
   198 r.202                   -1000         -1001               
   199 r.203                 2031.08       59.3658               
   200 r.204                       2             2               
   201 r.205                      -2         -1001               
   202 r.206                   33.28         33.28               
   203 r.207                    1000             2               
   204 r.208                   -1000         -1001               
   205 r.209                  1997.8        31.339               
   206 r.210                       2             2               
   207 r.211                      -2         -1001               
   208 r.212                 961.929       19.3806               
   209 r.213                 59.6562      -971.544               
   210 r.214                -942.548      -982.683               
   211 r.215                 59.6562      -971.544               
   212 r.216                -942.548      -982.683               
   213 r.217                -916.712      -916.712               
   214 r.218                 83.2878      -947.767               
   215 r.219                -914.508      -916.712               
   216 r.220                  85.492      -947.767               
   217 r.221                 83.2878      -915.986               
   218 r.222                -916.712      -947.788               
   219 r.223                  85.492      -915.986               
   220 r.224                -914.508      -947.788               
   221 r.225                       2             2               
   222 r.226                      -2         -1001               
   223 r.227                 916.712       39.5822               
   224 r.228                    1000             2               
   225 r.229                   -1000         -1001               
   226 r.230                 1947.79       23.6306               
   227 r.231                    1001             2               
   228 r.232                   -1001         -1001               
   229 r.233                 1947.79       59.3658               
   230 r.234                    1001             2               
   231 r.235                   -1001         -1001               
   232 r.236                 1947.79         33.28               
   233 r.237                    1001             2               
   234 r.238                   -1001         -1001               
   235 r.239                 1914.51        31.339               
   236 r.240                    1001             2               
   237 r.241                   -1001         -1001               
   238 r.242                 1876.44       19.3806               
   239 r.243                    1001             2               
   240 r.244                   -1001         -1001               
   241 r.245                    2000      -915.986               
   242 r.246                    1001             2               
   243 r.247                   -1001         -1001               
   244 r.248                    2000      -947.788               
   245 r.249                    1000             2               
   246 r.250                   -1000         -1001               
   247 r.251                 1916.71       34.8406               
   248 r.252                       2             2               
   249 r.253                      -2         -1001               
   250 r.254                 897.191       20.7548               
   251 r.255                    1001             2               
   252 r.256                   -1001         -1001               
   253 r.257                    2000       83.2878               
   254 r.258                    1001             2               
   255 r.259                   -1001         -1001               
   256 r.260                    2000       52.2332               

   No. Column name       Activity     Lower bound   Upper bound
------ ------------    ------------- ------------- -------------
     1 tt                    145.082             0               
     2 s_1_1        *              0             0             1 
     3 t_1_1                 83.2878             0               
     4 s_1_7        *              1             0             1 
     5 s_2_1        *              1             0             1 
     6 t_2_1                 102.809             0               
     7 s_2_7        *              0             0             1 
     8 s_1_2        *              1             0             1 
     9 t_1_2                 83.2878             0               
    10 s_1_8        *              0             0             1 
    11 s_2_2        *              0             0             1 
    12 t_2_2                  52.212             0               
    13 s_2_8        *              1             0             1 
    14 s_1_3        *              0             0             1 
    15 t_1_3                  52.212             0               
    16 s_2_3        *              1             0             1 
    17 t_2_3                  52.212             0               
    18 s_1_4        *              0             0             1 
    19 t_1_4                  85.492             0               
    20 s_2_4        *              1             0             1 
    21 t_2_4                 123.563             0               
    22 s_1_5        *              0             0             1 
    23 t_1_5                 83.2878             0               
    24 s_2_5        *              1             0             1 
    25 t_2_5                  85.492             0               
    26 s_1_6        *              1             0             1 
    27 t_1_6                 142.944             0               
    28 s_2_6        *              0             0             1 
    29 t_2_6                 142.944             0               
    30 t_1_7                       0             0               
    31 t_2_7                       0             0               
    32 t_1_8                       0             0               
    33 t_2_8                       0             0               
    34 r_1_1_2      *              1             0             1 
    35 u_1_1_2      *              0             0             1 
    36 r_2_1_2      *              1             0             1 
    37 u_2_1_2      *              0             0             1 
    38 r_1_1_3      *              1             0             1 
    39 u_1_1_3      *              0             0             1 
    40 r_2_1_3      *              0             0             1 
    41 u_2_1_3      *              1             0             1 
    42 r_1_1_4      *              1             0             1 
    43 u_1_1_4      *              0             0             1 
    44 r_2_1_4      *              0             0             1 
    45 u_2_1_4      *              0             0             1 
    46 r_1_1_5      *              1             0             1 
    47 u_1_1_5      *              0             0             1 
    48 r_2_1_5      *              0             0             1 
    49 u_2_1_5      *              1             0             1 
    50 r_1_1_8      *              1             0             1 
    51 u_1_1_8      *              0             0             1 
    52 r_2_1_8      *              0             0             1 
    53 u_2_1_8      *              1             0             1 
    54 r_1_2_3      *              1             0             1 
    55 u_1_2_3      *              0             0             1 
    56 r_2_2_3      *              1             0             1 
    57 u_2_2_3      *              0             0             1 
    58 r_1_2_4      *              1             0             1 
    59 u_1_2_4      *              0             0             1 
    60 r_2_2_4      *              1             0             1 
    61 u_2_2_4      *              0             0             1 
    62 r_1_2_5      *              1             0             1 
    63 u_1_2_5      *              0             0             1 
    64 r_2_2_5      *              1             0             1 
    65 u_2_2_5      *              0             0             1 
    66 r_1_2_7      *              0             0             1 
    67 u_1_2_7      *              1             0             1 
    68 r_2_2_7      *              1             0             1 
    69 u_2_2_7      *              0             0             1 
    70 r_1_3_5      *              1             0             1 
    71 u_1_3_5      *              0             0             1 
    72 r_2_3_5      *              0             0             1 
    73 u_2_3_5      *              0             0             1 
    74 r_1_3_7      *              1             0             1 
    75 u_1_3_7      *              0             0             1 
    76 r_2_3_7      *              1             0             1 
    77 u_2_3_7      *              0             0             1 
    78 r_1_4_5      *              1             0             1 
    79 u_1_4_5      *              0             0             1 
    80 r_2_4_5      *              0             0             1 
    81 u_2_4_5      *              1             0             1 
    82 r_1_4_7      *              1             0             1 
    83 u_1_4_7      *              0             0             1 
    84 r_2_4_7      *              1             0             1 
    85 u_2_4_7      *              0             0             1 
    86 r_1_7_8      *              1             0             1 
    87 u_1_7_8      *              0             0             1 
    88 r_2_7_8      *              1             0             1 
    89 u_2_7_8      *              0             0             1 

Integer feasibility conditions:

KKT.PE: max.abs.err = 0.00e+00 on row 0
        max.rel.err = 0.00e+00 on row 0
        High quality

KKT.PB: max.abs.err = 0.00e+00 on row 0
        max.rel.err = 0.00e+00 on row 0
        High quality

End of output
